results/x-long/X-n190-k8.vrp_seed-18.out
16983	1282
