results/x-long/X-n190-k8.vrp_seed-18.vrp.sol
Route #1: 131 99 45 149 139 72 133 156 129 108 103 34 128 163 4 110 168 120 13 171 66 63 57 188 19 105
Route #2: 73 43 58 28 138 85 80 147 150 30 39 36 38 2 6 35 89 104 142 159 10
Route #3: 102 68 179 62 59 96 3 15 27 187 124 140 189 154 53 20 65 114 9 91 55 135 31
Route #4: 112 169 78 22 77 86 125 137 151 174 48 54 126 181 41 152 87 186 146 71 52 101 47 5 176 12 24 97 143 95
Route #5: 170 166 157 173 132 134 161 74 111 164 69 178 21 50 94 144 115 145 81 92 46 67 14
Route #6: 172 127 44 88 165 1 184 160 182 83 29 37
Route #7: 64 25 183 136 167 123 177 148 98 141 70 185 18 84 153 180 61 32 40 76 90 42 100 8 56 130 109
Route #8: 106 119 49 26 117 175 11 122 82 116 60 79 17 155 7 162 33 107 113 23 158 121 75 93 51 16 118
Cost 16983.000000